8 8
  0	52	1	46	2	94	3	42	4	61	5	7	6	12	7	24	
  0	82	1	76	2	99	3	17	4	89	5	40	6	47	7	87	
  0	63	1	8	2	11	3	23	4	41	5	73	6	5	7	46	
  0	22	1	51	2	17	3	9	4	73	5	4	6	46	7	45	
  0	46	1	87	2	98	3	20	4	10	5	28	6	68	7	87	
  0	1	1	61	2	14	3	72	4	31	5	23	6	75	7	10	
  0	40	1	86	2	30	3	92	4	81	5	85	6	42	7	54	
  0	69	1	25	2	96	3	12	4	5	5	77	6	75	7	64	
